N = 576;
M = 1426;
Edge_Start = [1, 1, 2, 2, 3, 3, 3, 4, 4, 5, 5, 5, 6, 6, 7, 7, 7, 8, 8, 9, 9, 9, 10, 11, 11, 12, 12, 13, 13, 14, 15, 15, 15, 16, 16, 17, 17, 17, 18, 18, 19, 19, 19, 20, 20, 21, 21, 22, 22, 23, 23, 23, 24, 24, 25, 25, 25, 26, 26, 27, 27, 28, 29, 29, 29, 30, 30, 31, 31, 31, 32, 32, 33, 33, 34, 34, 35, 35, 35, 36, 36, 36, 37, 37, 37, 38, 38, 39, 39, 40, 40, 40, 41, 41, 42, 42, 43, 43, 43, 44, 44, 45, 45, 46, 46, 46, 47, 47, 47, 48, 48, 49, 50, 50, 51, 51, 52, 52, 53, 53, 53, 54, 54, 55, 55, 56, 57, 58, 58, 59, 59, 59, 60, 60, 60, 61, 62, 62, 63, 63, 63, 64, 64, 65, 65, 66, 66, 66, 67, 67, 68, 68, 69, 69, 69, 70, 70, 70, 71, 71, 71, 72, 72, 72, 73, 73, 73, 74, 74, 75, 75, 75, 76, 76, 76, 77, 77, 77, 78, 78, 79, 79, 80, 80, 81, 81, 81, 82, 82, 82, 83, 83, 83, 84, 84, 84, 85, 85, 85, 86, 86, 86, 87, 87, 87, 88, 88, 88, 89, 89, 89, 90, 90, 90, 91, 91, 91, 92, 92, 92, 93, 93, 93, 94, 94, 95, 96, 96, 97, 97, 97, 98, 98, 98, 99, 99, 99, 100, 100, 101, 101, 102, 102, 103, 103, 103, 104, 104, 104, 105, 105, 106, 106, 107, 107, 107, 108, 108, 109, 109, 109, 110, 110, 110, 111, 111, 111, 112, 113, 113, 114, 114, 114, 115, 115, 115, 116, 116, 116, 117, 117, 117, 118, 118, 119, 119, 120, 120, 120, 121, 121, 121, 122, 122, 122, 123, 123, 123, 124, 124, 124, 125, 125, 125, 126, 126, 126, 127, 127, 128, 128, 128, 129, 129, 129, 130, 130, 131, 131, 131, 132, 132, 132, 133, 133, 133, 134, 134, 135, 135, 136, 136, 137, 137, 137, 138, 138, 139, 139, 140, 140, 140, 141, 141, 142, 142, 143, 143, 143, 144, 144, 144, 145, 145, 145, 146, 146, 146, 147, 147, 147, 148, 148, 148, 149, 149, 150, 150, 151, 151, 151, 152, 152, 152, 153, 153, 154, 154, 155, 155, 155, 156, 156, 156, 157, 157, 157, 158, 158, 159, 159, 160, 160, 160, 161, 161, 162, 162, 163, 163, 163, 164, 164, 164, 165, 165, 165, 166, 166, 166, 167, 167, 167, 168, 168, 168, 169, 169, 170, 170, 171, 171, 172, 172, 172, 173, 173, 174, 174, 174, 175, 176, 176, 177, 177, 178, 178, 179, 180, 180, 180, 181, 181, 182, 182, 182, 183, 183, 184, 184, 185, 185, 186, 186, 187, 187, 188, 188, 188, 189, 189, 189, 190, 190, 190, 191, 191, 191, 192, 192, 192, 193, 193, 193, 194, 194, 194, 195, 195, 195, 196, 196, 197, 197, 198, 198, 199, 199, 200, 200, 200, 201, 201, 201, 202, 202, 202, 203, 203, 204, 204, 205, 205, 206, 206, 207, 208, 208, 209, 209, 210, 210, 210, 211, 211, 212, 212, 212, 213, 213, 214, 214, 214, 215, 215, 216, 216, 216, 217, 217, 218, 218, 218, 219, 219, 219, 220, 220, 221, 221, 221, 222, 222, 223, 223, 223, 224, 224, 225, 225, 226, 226, 227, 227, 228, 228, 228, 229, 229, 230, 230, 231, 231, 232, 233, 234, 234, 234, 235, 235, 235, 236, 236, 236, 237, 237, 238, 238, 239, 239, 240, 240, 240, 241, 241, 241, 242, 242, 243, 243, 243, 244, 244, 244, 245, 245, 245, 246, 246, 246, 247, 247, 248, 248, 248, 249, 249, 249, 250, 250, 250, 251, 251, 252, 252, 253, 253, 253, 254, 254, 255, 255, 255, 256, 256, 257, 257, 258, 258, 258, 259, 259, 259, 260, 260, 260, 261, 261, 261, 262, 262, 262, 263, 263, 263, 264, 264, 264, 265, 265, 265, 266, 266, 266, 267, 267, 267, 268, 268, 268, 269, 269, 270, 271, 272, 272, 273, 273, 274, 274, 275, 275, 276, 276, 276, 277, 277, 278, 279, 279, 280, 280, 280, 281, 281, 282, 282, 282, 283, 283, 283, 284, 284, 284, 285, 285, 285, 286, 286, 286, 287, 287, 287, 288, 288, 288, 289, 289, 289, 290, 290, 290, 291, 291, 292, 292, 293, 293, 294, 294, 294, 295, 295, 295, 296, 296, 296, 297, 297, 297, 298, 298, 298, 299, 299, 299, 300, 301, 301, 302, 302, 302, 303, 303, 303, 304, 304, 304, 305, 305, 306, 307, 308, 308, 309, 309, 309, 310, 310, 310, 311, 311, 312, 312, 313, 313, 313, 314, 314, 314, 315, 315, 315, 316, 316, 316, 317, 317, 317, 318, 318, 318, 319, 319, 319, 320, 320, 320, 321, 321, 322, 322, 323, 323, 323, 324, 324, 324, 325, 325, 326, 326, 326, 327, 327, 327, 328, 328, 328, 329, 329, 329, 330, 330, 330, 331, 331, 332, 332, 332, 333, 333, 333, 334, 334, 335, 335, 335, 336, 336, 336, 337, 337, 337, 338, 338, 338, 339, 339, 340, 340, 341, 341, 341, 342, 342, 342, 343, 343, 343, 344, 344, 345, 345, 346, 346, 346, 347, 347, 347, 348, 348, 348, 349, 349, 349, 350, 350, 350, 351, 351, 351, 352, 352, 353, 354, 354, 355, 355, 355, 356, 356, 356, 357, 357, 357, 358, 358, 358, 359, 359, 360, 360, 360, 361, 361, 361, 362, 362, 363, 363, 364, 364, 365, 365, 366, 366, 367, 367, 367, 368, 368, 368, 369, 369, 369, 370, 370, 370, 371, 371, 372, 373, 374, 374, 375, 375, 375, 376, 376, 376, 377, 377, 377, 378, 378, 378, 379, 379, 379, 380, 380, 380, 381, 381, 381, 382, 382, 382, 383, 383, 384, 384, 384, 385, 385, 385, 386, 386, 387, 387, 388, 388, 389, 389, 390, 390, 391, 391, 392, 392, 393, 393, 394, 394, 394, 395, 395, 395, 396, 396, 397, 397, 397, 398, 398, 398, 399, 399, 399, 400, 400, 401, 401, 401, 402, 402, 403, 403, 404, 404, 404, 405, 405, 405, 406, 406, 406, 407, 407, 408, 408, 409, 409, 409, 410, 410, 410, 411, 411, 411, 412, 412, 412, 413, 413, 414, 414, 415, 415, 416, 416, 417, 417, 418, 418, 418, 419, 419, 419, 420, 420, 421, 421, 422, 422, 423, 423, 423, 424, 424, 424, 425, 425, 425, 426, 426, 426, 427, 427, 427, 428, 428, 428, 429, 429, 429, 430, 430, 431, 431, 431, 432, 432, 432, 433, 433, 434, 435, 435, 436, 436, 436, 437, 437, 438, 438, 439, 439, 439, 440, 440, 441, 442, 442, 443, 443, 443, 444, 444, 445, 445, 446, 446, 446, 447, 447, 447, 448, 448, 448, 449, 449, 449, 450, 450, 450, 451, 451, 451, 452, 452, 452, 453, 453, 453, 454, 454, 454, 455, 455, 455, 456, 457, 457, 458, 458, 458, 459, 459, 459, 460, 460, 461, 461, 462, 462, 462, 463, 463, 463, 464, 464, 465, 465, 465, 466, 466, 466, 467, 467, 467, 468, 468, 468, 469, 469, 469, 470, 470, 470, 471, 471, 471, 472, 472, 473, 473, 474, 474, 474, 475, 475, 476, 476, 477, 477, 478, 478, 479, 479, 479, 480, 480, 480, 481, 481, 481, 482, 482, 482, 483, 483, 483, 484, 484, 484, 485, 485, 485, 486, 486, 486, 487, 487, 487, 488, 488, 489, 489, 490, 490, 490, 491, 491, 491, 492, 493, 493, 494, 494, 495, 495, 496, 496, 496, 497, 497, 497, 498, 498, 498, 499, 499, 500, 500, 501, 501, 501, 502, 502, 503, 503, 504, 504, 504, 505, 505, 505, 506, 506, 506, 507, 507, 507, 508, 508, 508, 509, 509, 510, 510, 511, 511, 511, 512, 512, 512, 513, 513, 513, 514, 514, 515, 515, 516, 516, 516, 517, 517, 518, 518, 518, 519, 519, 519, 520, 520, 520, 521, 521, 521, 522, 522, 522, 523, 523, 523, 524, 524, 525, 525, 526, 526, 527, 527, 527, 528, 528, 528, 529, 529, 529, 530, 530, 530, 531, 531, 531, 532, 532, 532, 533, 533, 533, 534, 534, 534, 535, 535, 536, 536, 536, 537, 537, 538, 538, 539, 540, 540, 541, 541, 541, 542, 542, 542, 543, 543, 544, 545, 546, 546, 546, 547, 547, 548, 548, 548, 549, 549, 550, 550, 551, 551, 552, 552, 552, 553, 553, 554, 554, 555, 556, 556, 556, 557, 557, 558, 558, 559, 560, 560, 560, 561, 561, 562, 562, 562, 563, 563, 564, 564, 564, 565, 565, 566, 566, 566, 567, 567, 568, 569, 570, 570, 570, 571, 571, 572, 573, 574, 574, 574, 575, 575, 576, 576];
Edge_End = [2, 34, 1, 3, 2, 4, 36, 3, 5, 4, 6, 38, 5, 7, 6, 8, 40, 7, 9, 8, 10, 42, 9, 12, 44, 11, 13, 12, 46, 15, 14, 16, 48, 15, 17, 16, 18, 50, 17, 19, 18, 20, 52, 19, 21, 20, 22, 21, 23, 22, 24, 56, 23, 25, 24, 26, 58, 25, 27, 26, 60, 29, 28, 30, 62, 29, 31, 30, 32, 64, 31, 33, 32, 66, 1, 35, 34, 36, 69, 3, 35, 37, 36, 38, 71, 5, 37, 40, 73, 7, 39, 41, 40, 75, 9, 43, 42, 44, 77, 11, 43, 46, 79, 13, 45, 47, 46, 48, 81, 15, 47, 83, 17, 51, 50, 85, 19, 53, 52, 54, 87, 53, 55, 54, 89, 23, 91, 25, 59, 58, 60, 93, 27, 59, 61, 60, 29, 63, 62, 64, 97, 31, 63, 66, 99, 33, 65, 67, 66, 101, 69, 102, 35, 68, 70, 69, 71, 104, 37, 70, 72, 71, 73, 106, 39, 72, 74, 73, 75, 41, 74, 76, 75, 77, 110, 43, 76, 78, 77, 79, 45, 78, 81, 114, 47, 80, 82, 81, 83, 116, 49, 82, 84, 83, 85, 118, 51, 84, 86, 85, 87, 120, 53, 86, 88, 87, 89, 122, 55, 88, 90, 89, 91, 124, 57, 90, 92, 91, 93, 126, 59, 92, 94, 93, 128, 96, 95, 97, 63, 96, 98, 97, 99, 132, 65, 98, 100, 99, 101, 67, 100, 68, 103, 102, 104, 137, 70, 103, 105, 104, 139, 72, 107, 106, 108, 141, 107, 109, 108, 110, 143, 76, 109, 111, 110, 112, 145, 111, 114, 147, 80, 113, 115, 114, 116, 149, 82, 115, 117, 116, 118, 151, 84, 117, 120, 153, 86, 119, 121, 120, 122, 155, 88, 121, 123, 122, 124, 157, 90, 123, 125, 124, 126, 159, 92, 125, 127, 126, 128, 94, 127, 129, 128, 130, 163, 129, 131, 130, 132, 165, 98, 131, 133, 132, 134, 167, 133, 135, 134, 169, 137, 170, 103, 136, 138, 137, 172, 105, 140, 139, 141, 174, 107, 140, 143, 176, 109, 142, 144, 143, 145, 178, 111, 144, 146, 145, 147, 180, 113, 146, 148, 147, 149, 182, 115, 148, 151, 184, 117, 150, 152, 151, 153, 186, 119, 152, 155, 188, 121, 154, 156, 155, 157, 190, 123, 156, 158, 157, 192, 125, 160, 159, 161, 194, 160, 162, 161, 163, 129, 162, 164, 163, 165, 198, 131, 164, 166, 165, 167, 200, 133, 166, 168, 167, 169, 202, 135, 168, 136, 171, 170, 172, 138, 171, 173, 172, 174, 140, 173, 175, 174, 142, 177, 176, 178, 144, 177, 180, 146, 179, 181, 180, 182, 148, 181, 183, 182, 184, 150, 183, 186, 219, 152, 185, 188, 221, 154, 187, 189, 188, 190, 223, 156, 189, 191, 190, 192, 225, 158, 191, 193, 192, 194, 227, 160, 193, 195, 194, 196, 229, 195, 197, 196, 231, 164, 199, 198, 200, 166, 199, 201, 200, 202, 235, 168, 201, 203, 202, 237, 205, 238, 204, 206, 205, 240, 208, 207, 209, 208, 210, 209, 211, 244, 210, 212, 211, 213, 246, 212, 214, 213, 215, 248, 214, 216, 215, 217, 250, 216, 218, 217, 219, 252, 185, 218, 220, 219, 221, 187, 220, 222, 221, 223, 189, 222, 224, 223, 258, 191, 226, 225, 260, 193, 228, 227, 229, 262, 195, 228, 231, 264, 197, 230, 266, 234, 233, 235, 268, 201, 234, 236, 235, 237, 270, 203, 236, 204, 239, 238, 240, 206, 239, 241, 240, 242, 275, 241, 243, 242, 244, 277, 210, 243, 245, 244, 246, 279, 212, 245, 247, 246, 248, 214, 247, 249, 248, 250, 283, 216, 249, 251, 250, 285, 218, 253, 252, 254, 287, 253, 255, 254, 256, 289, 255, 257, 256, 258, 224, 257, 259, 258, 260, 293, 226, 259, 261, 260, 262, 295, 228, 261, 263, 262, 264, 297, 230, 263, 265, 264, 266, 299, 232, 265, 267, 266, 268, 301, 234, 267, 269, 268, 303, 236, 305, 273, 306, 272, 274, 273, 308, 241, 276, 275, 277, 310, 243, 276, 312, 245, 280, 279, 281, 314, 280, 282, 281, 283, 316, 249, 282, 284, 283, 285, 318, 251, 284, 286, 285, 287, 320, 253, 286, 288, 287, 289, 322, 255, 288, 290, 289, 291, 324, 290, 292, 291, 326, 259, 294, 293, 295, 328, 261, 294, 296, 295, 297, 330, 263, 296, 298, 297, 299, 332, 265, 298, 300, 299, 267, 302, 301, 303, 336, 269, 302, 304, 303, 305, 338, 271, 304, 272, 341, 274, 309, 308, 310, 343, 276, 309, 311, 310, 345, 278, 313, 312, 314, 347, 280, 313, 315, 314, 316, 349, 282, 315, 317, 316, 318, 351, 284, 317, 319, 318, 320, 353, 286, 319, 321, 320, 355, 288, 323, 322, 324, 357, 290, 323, 325, 324, 326, 292, 325, 327, 326, 328, 361, 294, 327, 329, 328, 330, 363, 296, 329, 331, 330, 332, 298, 331, 333, 332, 334, 367, 333, 335, 334, 336, 369, 302, 335, 337, 336, 338, 371, 304, 337, 339, 338, 373, 341, 374, 307, 340, 342, 341, 343, 376, 309, 342, 344, 343, 378, 311, 346, 345, 347, 380, 313, 346, 348, 347, 349, 382, 315, 348, 350, 349, 351, 384, 317, 350, 352, 351, 386, 319, 355, 388, 321, 354, 356, 355, 357, 390, 323, 356, 358, 357, 359, 392, 358, 360, 359, 361, 394, 327, 360, 362, 361, 363, 329, 362, 365, 398, 364, 366, 365, 367, 333, 366, 368, 367, 369, 402, 335, 368, 370, 369, 371, 404, 337, 370, 406, 339, 340, 375, 374, 376, 409, 342, 375, 377, 376, 378, 411, 344, 377, 379, 378, 380, 413, 346, 379, 381, 380, 382, 415, 348, 381, 383, 382, 384, 350, 383, 385, 384, 386, 419, 352, 385, 388, 421, 354, 387, 390, 423, 356, 389, 392, 425, 358, 391, 394, 427, 360, 393, 395, 394, 396, 429, 395, 397, 396, 398, 431, 364, 397, 399, 398, 400, 433, 399, 401, 400, 402, 435, 368, 401, 404, 437, 370, 403, 405, 404, 406, 439, 372, 405, 407, 406, 441, 409, 442, 375, 408, 410, 409, 411, 444, 377, 410, 412, 411, 413, 446, 379, 412, 415, 448, 381, 414, 417, 450, 416, 418, 417, 419, 452, 385, 418, 420, 419, 454, 387, 422, 421, 423, 389, 422, 424, 423, 425, 458, 391, 424, 426, 425, 427, 460, 393, 426, 428, 427, 429, 462, 395, 428, 430, 429, 431, 397, 430, 432, 431, 433, 466, 399, 432, 468, 401, 436, 435, 437, 470, 403, 436, 439, 472, 405, 438, 440, 439, 474, 407, 408, 443, 442, 444, 477, 410, 443, 446, 479, 412, 445, 447, 446, 448, 481, 414, 447, 449, 448, 450, 483, 416, 449, 451, 450, 452, 485, 418, 451, 453, 452, 454, 487, 420, 453, 455, 454, 456, 489, 455, 458, 491, 424, 457, 459, 458, 460, 493, 426, 459, 462, 495, 428, 461, 463, 462, 464, 497, 463, 465, 464, 466, 499, 432, 465, 467, 466, 468, 501, 434, 467, 469, 468, 470, 503, 436, 469, 471, 470, 472, 505, 438, 471, 474, 507, 440, 473, 475, 474, 509, 477, 510, 443, 476, 479, 512, 445, 478, 480, 479, 481, 514, 447, 480, 482, 481, 483, 516, 449, 482, 484, 483, 485, 518, 451, 484, 486, 485, 487, 520, 453, 486, 488, 487, 522, 455, 490, 489, 491, 524, 457, 490, 492, 491, 459, 494, 493, 528, 461, 496, 495, 497, 530, 463, 496, 498, 497, 499, 532, 465, 498, 501, 534, 467, 500, 502, 501, 536, 469, 504, 503, 505, 538, 471, 504, 506, 505, 507, 540, 473, 506, 508, 507, 509, 542, 475, 508, 476, 511, 510, 512, 544, 478, 511, 513, 512, 514, 546, 480, 513, 516, 548, 482, 515, 517, 516, 518, 484, 517, 519, 518, 520, 552, 486, 519, 521, 520, 522, 554, 488, 521, 523, 522, 524, 556, 490, 523, 526, 558, 525, 527, 526, 528, 560, 494, 527, 529, 528, 530, 562, 496, 529, 531, 530, 532, 564, 498, 531, 533, 532, 534, 566, 500, 533, 535, 534, 536, 502, 535, 537, 536, 570, 504, 539, 538, 506, 541, 540, 542, 574, 508, 541, 543, 542, 576, 511, 546, 513, 545, 547, 546, 548, 515, 547, 549, 548, 550, 549, 551, 550, 552, 519, 551, 553, 552, 554, 521, 553, 556, 523, 555, 557, 556, 558, 525, 557, 560, 527, 559, 561, 560, 562, 529, 561, 563, 562, 564, 531, 563, 565, 564, 566, 533, 565, 567, 566, 568, 567, 570, 537, 569, 571, 570, 572, 571, 574, 541, 573, 575, 574, 576, 543, 575];
L = [1, 1, 1, 1, 1, 1, 1, 1, 1, 1, 1, 1, 1, 1, 1, 1, 1, 1, 1, 1, 1, 1, 1, 1, 1, 1, 1, 1, 1, 1, 1, 1, 1, 1, 1, 1, 1, 1, 1, 1, 1, 1, 1, 1, 1, 1, 1, 1, 1, 1, 1, 1, 1, 1, 1, 1, 1, 1, 1, 1, 1, 1, 1, 1, 1, 1, 1, 1, 1, 1, 1, 1, 1, 1, 1, 1, 1, 1, 1, 1, 1, 1, 1, 1, 1, 1, 1, 1, 1, 1, 1, 1, 1, 1, 1, 1, 1, 1, 1, 1, 1, 1, 1, 1, 1, 1, 1, 1, 1, 1, 1, 1, 1, 1, 1, 1, 1, 1, 1, 1, 1, 1, 1, 1, 1, 1, 1, 1, 1, 1, 1, 1, 1, 1, 1, 1, 1, 1, 1, 1, 1, 1, 1, 1, 1, 1, 1, 1, 1, 1, 1, 1, 1, 1, 1, 1, 1, 1, 1, 1, 1, 1, 1, 1, 1, 1, 1, 1, 1, 1, 1, 1, 1, 1, 1, 1, 1, 1, 1, 1, 1, 1, 1, 1, 1, 1, 1, 1, 1, 1, 1, 1, 1, 1, 1, 1, 1, 1, 1, 1, 1, 1, 1, 1, 1, 1, 1, 1, 1, 1, 1, 1, 1, 1, 1, 1, 1, 1, 1, 1, 1, 1, 1, 1, 1, 1, 1, 1, 1, 1, 1, 1, 1, 1, 1, 1, 1, 1, 1, 1, 1, 1, 1, 1, 1, 1, 1, 1, 1, 1, 1, 1, 1, 1, 1, 1, 1, 1, 1, 1, 1, 1, 1, 1, 1, 1, 1, 1, 1, 1, 1, 1, 1, 1, 1, 1, 1, 1, 1, 1, 1, 1, 1, 1, 1, 1, 1, 1, 1, 1, 1, 1, 1, 1, 1, 1, 1, 1, 1, 1, 1, 1, 1, 1, 1, 1, 1, 1, 1, 1, 1, 1, 1, 1, 1, 1, 1, 1, 1, 1, 1, 1, 1, 1, 1, 1, 1, 1, 1, 1, 1, 1, 1, 1, 1, 1, 1, 1, 1, 1, 1, 1, 1, 1, 1, 1, 1, 1, 1, 1, 1, 1, 1, 1, 1, 1, 1, 1, 1, 1, 1, 1, 1, 1, 1, 1, 1, 1, 1, 1, 1, 1, 1, 1, 1, 1, 1, 1, 1, 1, 1, 1, 1, 1, 1, 1, 1, 1, 1, 1, 1, 1, 1, 1, 1, 1, 1, 1, 1, 1, 1, 1, 1, 1, 1, 1, 1, 1, 1, 1, 1, 1, 1, 1, 1, 1, 1, 1, 1, 1, 1, 1, 1, 1, 1, 1, 1, 1, 1, 1, 1, 1, 1, 1, 1, 1, 1, 1, 1, 1, 1, 1, 1, 1, 1, 1, 1, 1, 1, 1, 1, 1, 1, 1, 1, 1, 1, 1, 1, 1, 1, 1, 1, 1, 1, 1, 1, 1, 1, 1, 1, 1, 1, 1, 1, 1, 1, 1, 1, 1, 1, 1, 1, 1, 1, 1, 1, 1, 1, 1, 1, 1, 1, 1, 1, 1, 1, 1, 1, 1, 1, 1, 1, 1, 1, 1, 1, 1, 1, 1, 1, 1, 1, 1, 1, 1, 1, 1, 1, 1, 1, 1, 1, 1, 1, 1, 1, 1, 1, 1, 1, 1, 1, 1, 1, 1, 1, 1, 1, 1, 1, 1, 1, 1, 1, 1, 1, 1, 1, 1, 1, 1, 1, 1, 1, 1, 1, 1, 1, 1, 1, 1, 1, 1, 1, 1, 1, 1, 1, 1, 1, 1, 1, 1, 1, 1, 1, 1, 1, 1, 1, 1, 1, 1, 1, 1, 1, 1, 1, 1, 1, 1, 1, 1, 1, 1, 1, 1, 1, 1, 1, 1, 1, 1, 1, 1, 1, 1, 1, 1, 1, 1, 1, 1, 1, 1, 1, 1, 1, 1, 1, 1, 1, 1, 1, 1, 1, 1, 1, 1, 1, 1, 1, 1, 1, 1, 1, 1, 1, 1, 1, 1, 1, 1, 1, 1, 1, 1, 1, 1, 1, 1, 1, 1, 1, 1, 1, 1, 1, 1, 1, 1, 1, 1, 1, 1, 1, 1, 1, 1, 1, 1, 1, 1, 1, 1, 1, 1, 1, 1, 1, 1, 1, 1, 1, 1, 1, 1, 1, 1, 1, 1, 1, 1, 1, 1, 1, 1, 1, 1, 1, 1, 1, 1, 1, 1, 1, 1, 1, 1, 1, 1, 1, 1, 1, 1, 1, 1, 1, 1, 1, 1, 1, 1, 1, 1, 1, 1, 1, 1, 1, 1, 1, 1, 1, 1, 1, 1, 1, 1, 1, 1, 1, 1, 1, 1, 1, 1, 1, 1, 1, 1, 1, 1, 1, 1, 1, 1, 1, 1, 1, 1, 1, 1, 1, 1, 1, 1, 1, 1, 1, 1, 1, 1, 1, 1, 1, 1, 1, 1, 1, 1, 1, 1, 1, 1, 1, 1, 1, 1, 1, 1, 1, 1, 1, 1, 1, 1, 1, 1, 1, 1, 1, 1, 1, 1, 1, 1, 1, 1, 1, 1, 1, 1, 1, 1, 1, 1, 1, 1, 1, 1, 1, 1, 1, 1, 1, 1, 1, 1, 1, 1, 1, 1, 1, 1, 1, 1, 1, 1, 1, 1, 1, 1, 1, 1, 1, 1, 1, 1, 1, 1, 1, 1, 1, 1, 1, 1, 1, 1, 1, 1, 1, 1, 1, 1, 1, 1, 1, 1, 1, 1, 1, 1, 1, 1, 1, 1, 1, 1, 1, 1, 1, 1, 1, 1, 1, 1, 1, 1, 1, 1, 1, 1, 1, 1, 1, 1, 1, 1, 1, 1, 1, 1, 1, 1, 1, 1, 1, 1, 1, 1, 1, 1, 1, 1, 1, 1, 1, 1, 1, 1, 1, 1, 1, 1, 1, 1, 1, 1, 1, 1, 1, 1, 1, 1, 1, 1, 1, 1, 1, 1, 1, 1, 1, 1, 1, 1, 1, 1, 1, 1, 1, 1, 1, 1, 1, 1, 1, 1, 1, 1, 1, 1, 1, 1, 1, 1, 1, 1, 1, 1, 1, 1, 1, 1, 1, 1, 1, 1, 1, 1, 1, 1, 1, 1, 1, 1, 1, 1, 1, 1, 1, 1, 1, 1, 1, 1, 1, 1, 1, 1, 1, 1, 1, 1, 1, 1, 1, 1, 1, 1, 1, 1, 1, 1, 1, 1, 1, 1, 1, 1, 1, 1, 1, 1, 1, 1, 1, 1, 1, 1, 1, 1, 1, 1, 1, 1, 1, 1, 1, 1, 1, 1, 1, 1, 1, 1, 1, 1, 1, 1, 1, 1, 1, 1, 1, 1, 1, 1, 1, 1, 1, 1, 1, 1, 1, 1, 1, 1, 1, 1, 1, 1, 1, 1, 1, 1, 1, 1, 1, 1, 1, 1, 1, 1, 1, 1, 1, 1, 1, 1, 1, 1, 1, 1, 1, 1, 1, 1, 1, 1, 1, 1, 1, 1, 1, 1, 1, 1, 1, 1, 1, 1, 1, 1, 1, 1, 1, 1, 1, 1, 1, 1, 1, 1, 1, 1, 1, 1, 1, 1, 1, 1, 1, 1, 1, 1, 1, 1, 1, 1, 1, 1, 1, 1, 1, 1, 1, 1, 1, 1, 1, 1, 1, 1, 1, 1, 1, 1, 1, 1, 1, 1, 1, 1, 1, 1, 1, 1, 1, 1, 1, 1, 1, 1, 1, 1, 1, 1, 1, 1, 1, 1, 1, 1, 1, 1, 1, 1, 1, 1, 1, 1, 1, 1, 1, 1, 1, 1, 1, 1, 1, 1, 1, 1, 1, 1, 1, 1, 1, 1, 1, 1, 1, 1, 1, 1, 1, 1, 1, 1, 1, 1, 1, 1, 1, 1, 1, 1, 1, 1, 1, 1, 1, 1, 1, 1, 1, 1, 1, 1, 1, 1, 1, 1, 1, 1, 1, 1, 1, 1, 1, 1, 1, 1, 1, 1, 1, 1, 1, 1, 1, 1, 1, 1, 1, 1, 1, 1, 1, 1, 1, 1, 1, 1, 1, 1, 1, 1, 1, 1, 1, 1, 1, 1, 1, 1, 1, 1, 1, 1, 1, 1, 1, 1, 1, 1, 1, 1, 1, 1, 1, 1, 1, 1, 1, 1, 1, 1, 1, 1, 1, 1, 1, 1, 1, 1, 1, 1, 1, 1, 1, 1, 1, 1, 1, 1, 1, 1, 1, 1, 1, 1, 1, 1, 1, 1, 1, 1, 1, 1, 1, 1, 1, 1, 1, 1, 1, 1, 1, 1, 1, 1, 1, 1, 1, 1, 1, 1, 1, 1, 1, 1, 1, 1, 1, 1, 1, 1, 1, 1, 1, 1, 1, 1, 1, 1, 1, 1, 1, 1, 1, 1, 1, 1, 1, 1, 1, 1, 1, 1, 1, 1, 1, 1, 1, 1, 1, 1, 1, 1, 1, 1, 1, 1, 1, 1, 1, 1, 1, 1, 1, 1, 1, 1, 1, 1, 1, 1, 1, 1, 1, 1, 1, 1];
T = [1, 1, 1, 1, 1, 1, 1, 1, 1, 1, 1, 1, 1, 1, 1, 1, 1, 1, 1, 1, 1, 1, 1, 1, 1, 1, 1, 1, 1, 1, 1, 1, 1, 1, 1, 1, 1, 1, 1, 1, 1, 1, 1, 1, 1, 1, 1, 1, 1, 1, 1, 1, 1, 1, 1, 1, 1, 1, 1, 1, 1, 1, 1, 1, 1, 1, 1, 1, 1, 1, 1, 1, 1, 1, 1, 1, 1, 1, 1, 1, 1, 1, 1, 1, 1, 1, 1, 1, 1, 1, 1, 1, 1, 1, 1, 1, 1, 1, 1, 1, 1, 1, 1, 1, 1, 1, 1, 1, 1, 1, 1, 1, 1, 1, 1, 1, 1, 1, 1, 1, 1, 1, 1, 1, 1, 1, 1, 1, 1, 1, 1, 1, 1, 1, 1, 1, 1, 1, 1, 1, 1, 1, 1, 1, 1, 1, 1, 1, 1, 1, 1, 1, 1, 1, 1, 1, 1, 1, 1, 1, 1, 1, 1, 1, 1, 1, 1, 1, 1, 1, 1, 1, 1, 1, 1, 1, 1, 1, 1, 1, 1, 1, 1, 1, 1, 1, 1, 1, 1, 1, 1, 1, 1, 1, 1, 1, 1, 1, 1, 1, 1, 1, 1, 1, 1, 1, 1, 1, 1, 1, 1, 1, 1, 1, 1, 1, 1, 1, 1, 1, 1, 1, 1, 1, 1, 1, 1, 1, 1, 1, 1, 1, 1, 1, 1, 1, 1, 1, 1, 1, 1, 1, 1, 1, 1, 1, 1, 1, 1, 1, 1, 1, 1, 1, 1, 1, 1, 1, 1, 1, 1, 1, 1, 1, 1, 1, 1, 1, 1, 1, 1, 1, 1, 1, 1, 1, 1, 1, 1, 1, 1, 1, 1, 1, 1, 1, 1, 1, 1, 1, 1, 1, 1, 1, 1, 1, 1, 1, 1, 1, 1, 1, 1, 1, 1, 1, 1, 1, 1, 1, 1, 1, 1, 1, 1, 1, 1, 1, 1, 1, 1, 1, 1, 1, 1, 1, 1, 1, 1, 1, 1, 1, 1, 1, 1, 1, 1, 1, 1, 1, 1, 1, 1, 1, 1, 1, 1, 1, 1, 1, 1, 1, 1, 1, 1, 1, 1, 1, 1, 1, 1, 1, 1, 1, 1, 1, 1, 1, 1, 1, 1, 1, 1, 1, 1, 1, 1, 1, 1, 1, 1, 1, 1, 1, 1, 1, 1, 1, 1, 1, 1, 1, 1, 1, 1, 1, 1, 1, 1, 1, 1, 1, 1, 1, 1, 1, 1, 1, 1, 1, 1, 1, 1, 1, 1, 1, 1, 1, 1, 1, 1, 1, 1, 1, 1, 1, 1, 1, 1, 1, 1, 1, 1, 1, 1, 1, 1, 1, 1, 1, 1, 1, 1, 1, 1, 1, 1, 1, 1, 1, 1, 1, 1, 1, 1, 1, 1, 1, 1, 1, 1, 1, 1, 1, 1, 1, 1, 1, 1, 1, 1, 1, 1, 1, 1, 1, 1, 1, 1, 1, 1, 1, 1, 1, 1, 1, 1, 1, 1, 1, 1, 1, 1, 1, 1, 1, 1, 1, 1, 1, 1, 1, 1, 1, 1, 1, 1, 1, 1, 1, 1, 1, 1, 1, 1, 1, 1, 1, 1, 1, 1, 1, 1, 1, 1, 1, 1, 1, 1, 1, 1, 1, 1, 1, 1, 1, 1, 1, 1, 1, 1, 1, 1, 1, 1, 1, 1, 1, 1, 1, 1, 1, 1, 1, 1, 1, 1, 1, 1, 1, 1, 1, 1, 1, 1, 1, 1, 1, 1, 1, 1, 1, 1, 1, 1, 1, 1, 1, 1, 1, 1, 1, 1, 1, 1, 1, 1, 1, 1, 1, 1, 1, 1, 1, 1, 1, 1, 1, 1, 1, 1, 1, 1, 1, 1, 1, 1, 1, 1, 1, 1, 1, 1, 1, 1, 1, 1, 1, 1, 1, 1, 1, 1, 1, 1, 1, 1, 1, 1, 1, 1, 1, 1, 1, 1, 1, 1, 1, 1, 1, 1, 1, 1, 1, 1, 1, 1, 1, 1, 1, 1, 1, 1, 1, 1, 1, 1, 1, 1, 1, 1, 1, 1, 1, 1, 1, 1, 1, 1, 1, 1, 1, 1, 1, 1, 1, 1, 1, 1, 1, 1, 1, 1, 1, 1, 1, 1, 1, 1, 1, 1, 1, 1, 1, 1, 1, 1, 1, 1, 1, 1, 1, 1, 1, 1, 1, 1, 1, 1, 1, 1, 1, 1, 1, 1, 1, 1, 1, 1, 1, 1, 1, 1, 1, 1, 1, 1, 1, 1, 1, 1, 1, 1, 1, 1, 1, 1, 1, 1, 1, 1, 1, 1, 1, 1, 1, 1, 1, 1, 1, 1, 1, 1, 1, 1, 1, 1, 1, 1, 1, 1, 1, 1, 1, 1, 1, 1, 1, 1, 1, 1, 1, 1, 1, 1, 1, 1, 1, 1, 1, 1, 1, 1, 1, 1, 1, 1, 1, 1, 1, 1, 1, 1, 1, 1, 1, 1, 1, 1, 1, 1, 1, 1, 1, 1, 1, 1, 1, 1, 1, 1, 1, 1, 1, 1, 1, 1, 1, 1, 1, 1, 1, 1, 1, 1, 1, 1, 1, 1, 1, 1, 1, 1, 1, 1, 1, 1, 1, 1, 1, 1, 1, 1, 1, 1, 1, 1, 1, 1, 1, 1, 1, 1, 1, 1, 1, 1, 1, 1, 1, 1, 1, 1, 1, 1, 1, 1, 1, 1, 1, 1, 1, 1, 1, 1, 1, 1, 1, 1, 1, 1, 1, 1, 1, 1, 1, 1, 1, 1, 1, 1, 1, 1, 1, 1, 1, 1, 1, 1, 1, 1, 1, 1, 1, 1, 1, 1, 1, 1, 1, 1, 1, 1, 1, 1, 1, 1, 1, 1, 1, 1, 1, 1, 1, 1, 1, 1, 1, 1, 1, 1, 1, 1, 1, 1, 1, 1, 1, 1, 1, 1, 1, 1, 1, 1, 1, 1, 1, 1, 1, 1, 1, 1, 1, 1, 1, 1, 1, 1, 1, 1, 1, 1, 1, 1, 1, 1, 1, 1, 1, 1, 1, 1, 1, 1, 1, 1, 1, 1, 1, 1, 1, 1, 1, 1, 1, 1, 1, 1, 1, 1, 1, 1, 1, 1, 1, 1, 1, 1, 1, 1, 1, 1, 1, 1, 1, 1, 1, 1, 1, 1, 1, 1, 1, 1, 1, 1, 1, 1, 1, 1, 1, 1, 1, 1, 1, 1, 1, 1, 1, 1, 1, 1, 1, 1, 1, 1, 1, 1, 1, 1, 1, 1, 1, 1, 1, 1, 1, 1, 1, 1, 1, 1, 1, 1, 1, 1, 1, 1, 1, 1, 1, 1, 1, 1, 1, 1, 1, 1, 1, 1, 1, 1, 1, 1, 1, 1, 1, 1, 1, 1, 1, 1, 1, 1, 1, 1, 1, 1, 1, 1, 1, 1, 1, 1, 1, 1, 1, 1, 1, 1, 1, 1, 1, 1, 1, 1, 1, 1, 1, 1, 1, 1, 1, 1, 1, 1, 1, 1, 1, 1, 1, 1, 1, 1, 1, 1, 1, 1, 1, 1, 1, 1, 1, 1, 1, 1, 1, 1, 1, 1, 1, 1, 1, 1, 1, 1, 1, 1, 1, 1, 1, 1, 1, 1, 1, 1, 1, 1, 1, 1, 1, 1, 1, 1, 1, 1, 1, 1, 1, 1, 1, 1, 1, 1, 1, 1, 1, 1, 1, 1, 1, 1, 1, 1, 1, 1, 1, 1, 1, 1, 1, 1, 1, 1, 1, 1, 1, 1, 1, 1, 1, 1, 1, 1, 1, 1, 1, 1, 1, 1, 1, 1, 1, 1, 1, 1, 1, 1, 1, 1, 1, 1, 1, 1, 1, 1, 1, 1, 1, 1, 1, 1, 1, 1, 1, 1, 1, 1, 1, 1, 1, 1, 1, 1, 1, 1, 1, 1, 1, 1, 1, 1, 1, 1, 1, 1, 1, 1, 1, 1, 1, 1, 1, 1, 1, 1, 1, 1, 1, 1, 1, 1, 1, 1, 1, 1, 1, 1, 1, 1, 1, 1, 1, 1, 1, 1, 1, 1, 1, 1, 1, 1, 1, 1, 1, 1, 1, 1, 1, 1, 1, 1, 1, 1, 1, 1, 1, 1, 1, 1, 1, 1, 1, 1, 1, 1, 1, 1, 1, 1, 1, 1, 1, 1, 1, 1, 1, 1, 1, 1, 1, 1, 1, 1, 1, 1, 1, 1, 1, 1, 1, 1, 1, 1, 1, 1, 1, 1, 1, 1, 1, 1, 1, 1, 1, 1, 1, 1, 1, 1, 1, 1, 1, 1, 1, 1, 1, 1, 1, 1, 1, 1, 1, 1, 1, 1, 1, 1, 1, 1, 1, 1, 1, 1, 1, 1, 1, 1, 1, 1, 1, 1, 1, 1, 1, 1, 1, 1, 1, 1, 1, 1, 1, 1, 1, 1, 1, 1, 1, 1, 1, 1, 1, 1, 1, 1, 1, 1, 1, 1, 1, 1, 1, 1, 1];
Lower_Bound = [0, 1, 2, 3, 4, 5, 6, 7, 8, 9, 12, 13, 14, 19, 18, 19, 20, 21, 22, 23, 24, 25, 26, 27, 28, 29, 30, 41, 40, 41, 40, 41, 40, 1, 2, 3, 4, 5, 8, 7, 8, 9, 10, 11, 14, 15, 16, 17, 20, 21, 22, 23, 24, 25, 26, 27, 28, 29, 30, 31, 32, 39, 38, 39, 38, 39, 40, 4, 3, 4, 5, 6, 7, 8, 9, 10, 11, 12, 13, 18, 17, 18, 19, 20, 21, 22, 23, 24, 25, 26, 27, 28, 29, 30, 39, 38, 37, 36, 37, 38, 39, 5, 6, 5, 6, 7, 8, 9, 10, 11, 12, 13, 16, 17, 18, 19, 20, 21, 24, 23, 24, 25, 26, 27, 28, 29, 30, 31, 32, 33, 34, 35, 36, 37, 38, 8, 7, 8, 7, 8, 9, 12, 11, 12, 13, 14, 15, 16, 17, 20, 21, 22, 23, 26, 25, 26, 27, 28, 29, 30, 31, 32, 33, 34, 35, 36, 37, 38, 39, 9, 10, 9, 10, 9, 10, 13, 14, 13, 16, 15, 16, 17, 18, 19, 24, 23, 28, 27, 28, 27, 28, 29, 30, 31, 32, 33, 34, 35, 36, 37, 38, 39, 40, 42, 41, 40, 37, 36, 35, 34, 33, 32, 31, 30, 29, 28, 27, 26, 25, 26, 27, 28, 29, 30, 29, 30, 31, 32, 33, 36, 35, 38, 41, 40, 39, 40, 41, 41, 40, 39, 38, 37, 36, 35, 34, 33, 32, 31, 30, 29, 30, 27, 28, 29, 30, 31, 32, 31, 32, 31, 32, 33, 34, 35, 36, 37, 38, 39, 40, 41, 44, 44, 43, 42, 39, 38, 37, 38, 35, 34, 33, 32, 31, 32, 31, 30, 29, 30, 31, 32, 33, 34, 33, 34, 33, 34, 35, 36, 37, 38, 39, 40, 41, 42, 43, 45, 44, 41, 40, 39, 40, 37, 36, 35, 34, 33, 34, 33, 32, 31, 32, 31, 32, 33, 34, 35, 36, 35, 36, 35, 36, 37, 38, 39, 40, 41, 42, 43, 44, 44, 43, 42, 41, 42, 39, 38, 37, 36, 35, 36, 35, 36, 33, 34, 33, 34, 33, 34, 35, 36, 37, 38, 37, 42, 41, 40, 39, 40, 41, 42, 43, 46, 45, 45, 44, 43, 42, 41, 40, 39, 38, 37, 38, 37, 38, 37, 36, 35, 36, 35, 36, 35, 38, 37, 38, 39, 40, 41, 42, 43, 42, 41, 44, 43, 44, 45, 46, 46, 45, 44, 43, 42, 41, 40, 39, 42, 41, 40, 39, 40, 37, 38, 37, 38, 37, 38, 39, 40, 39, 40, 41, 42, 43, 46, 43, 44, 45, 46, 45, 46, 47, 47, 46, 45, 44, 43, 42, 41, 42, 43, 42, 41, 42, 41, 42, 43, 40, 39, 40, 39, 42, 41, 42, 43, 44, 43, 44, 45, 46, 45, 46, 47, 48, 47, 48, 48, 47, 46, 45, 44, 43, 44, 43, 44, 43, 44, 43, 44, 43, 42, 41, 42, 41, 42, 43, 44, 43, 44, 45, 46, 45, 46, 47, 48, 47, 48, 49, 50, 49, 49, 48, 47, 46, 45, 46, 45, 46, 45, 46, 45, 46, 45, 44, 43, 46, 45, 44, 43, 44, 45, 46, 45, 46, 47, 48, 47, 48, 49, 50, 49, 50, 51, 52, 49, 48, 47, 48, 47, 48, 49, 48, 47, 48, 47, 46, 45, 46, 47, 46, 45, 46, 45, 46, 47, 48, 47, 48, 49, 50, 49, 50, 51, 52, 51, 52, 53];
Upper_Bound = [0, 1, 2, 3, 4, 5, 6, 7, 8, 9, 12, 13, 14, 19, 18, 19, 20, 21, 22, 23, 24, 25, 26, 27, 28, 29, 30, 41, 40, 41, 40, 41, 40, 1, 2, 3, 4, 5, 8, 7, 8, 9, 10, 11, 14, 15, 16, 17, 20, 21, 22, 23, 24, 25, 26, 27, 28, 29, 30, 31, 32, 39, 38, 39, 38, 39, 40, 4, 3, 4, 5, 6, 7, 8, 9, 10, 11, 12, 13, 18, 17, 18, 19, 20, 21, 22, 23, 24, 25, 26, 27, 28, 29, 30, 39, 38, 37, 36, 37, 38, 39, 5, 6, 5, 6, 7, 8, 9, 10, 11, 12, 13, 16, 17, 18, 19, 20, 21, 24, 23, 24, 25, 26, 27, 28, 29, 30, 31, 32, 33, 34, 35, 36, 37, 38, 8, 7, 8, 7, 8, 9, 12, 11, 12, 13, 14, 15, 16, 17, 20, 21, 22, 23, 26, 25, 26, 27, 28, 29, 30, 31, 32, 33, 34, 35, 36, 37, 38, 39, 9, 10, 9, 10, 9, 10, 13, 14, 13, 16, 15, 16, 17, 18, 19, 24, 23, 28, 27, 28, 27, 28, 29, 30, 31, 32, 33, 34, 35, 36, 37, 38, 39, 40, 42, 41, 40, 37, 36, 35, 34, 33, 32, 31, 30, 29, 28, 27, 26, 25, 26, 27, 28, 29, 30, 29, 30, 31, 32, 33, 36, 35, 38, 41, 40, 39, 40, 41, 41, 40, 39, 38, 37, 36, 35, 34, 33, 32, 31, 30, 29, 30, 27, 28, 29, 30, 31, 32, 31, 32, 31, 32, 33, 34, 35, 36, 37, 38, 39, 40, 41, 44, 44, 43, 42, 39, 38, 37, 38, 35, 34, 33, 32, 31, 32, 31, 30, 29, 30, 31, 32, 33, 34, 33, 34, 33, 34, 35, 36, 37, 38, 39, 40, 41, 42, 43, 45, 44, 41, 40, 39, 40, 37, 36, 35, 34, 33, 34, 33, 32, 31, 32, 31, 32, 33, 34, 35, 36, 35, 36, 35, 36, 37, 38, 39, 40, 41, 42, 43, 44, 44, 43, 42, 41, 42, 39, 38, 37, 36, 35, 36, 35, 36, 33, 34, 33, 34, 33, 34, 35, 36, 37, 38, 37, 42, 41, 40, 39, 40, 41, 42, 43, 46, 45, 45, 44, 43, 42, 41, 40, 39, 38, 37, 38, 37, 38, 37, 36, 35, 36, 35, 36, 35, 38, 37, 38, 39, 40, 41, 42, 43, 42, 41, 44, 43, 44, 45, 46, 46, 45, 44, 43, 42, 41, 40, 39, 42, 41, 40, 39, 40, 37, 38, 37, 38, 37, 38, 39, 40, 39, 40, 41, 42, 43, 46, 43, 44, 45, 46, 45, 46, 47, 47, 46, 45, 44, 43, 42, 41, 42, 43, 42, 41, 42, 41, 42, 43, 40, 39, 40, 39, 42, 41, 42, 43, 44, 43, 44, 45, 46, 45, 46, 47, 48, 47, 48, 48, 47, 46, 45, 44, 43, 44, 43, 44, 43, 44, 43, 44, 43, 42, 41, 42, 41, 42, 43, 44, 43, 44, 45, 46, 45, 46, 47, 48, 47, 48, 49, 50, 49, 49, 48, 47, 46, 45, 46, 45, 46, 45, 46, 45, 46, 45, 44, 43, 46, 45, 44, 43, 44, 45, 46, 45, 46, 47, 48, 47, 48, 49, 50, 49, 50, 51, 52, 49, 48, 47, 48, 47, 48, 49, 48, 47, 48, 47, 46, 45, 46, 47, 46, 45, 46, 45, 46, 47, 48, 47, 48, 49, 50, 49, 50, 51, 52, 51, 52, 53];
Start = 1;
End = 576;
Time = 53;
